60
881
30
0 1
0 2
0 3
0 4
0 5
0 6
0 8
0 9
0 10
0 11
0 12
0 14
0 16
0 18
0 19
0 20
0 23
0 26
0 28
0 31
0 33
0 35
0 36
0 37
0 38
0 39
0 40
0 42
0 43
0 46
0 48
0 51
0 53
0 56
0 57
1 2
1 3
1 6
1 7
1 13
1 14
1 16
1 17
1 18
1 19
1 21
1 24
1 26
1 27
1 37
1 38
1 39
1 40
1 42
1 43
1 46
1 49
1 51
1 52
1 55
1 56
1 57
1 58
2 3
2 8
2 10
2 13
2 14
2 15
2 17
2 19
2 21
2 23
2 24
2 25
2 27
2 28
2 29
2 30
2 34
2 37
2 39
2 42
2 43
2 45
2 46
2 49
2 50
2 51
2 55
2 56
2 57
3 4
3 6
3 8
3 10
3 11
3 12
3 15
3 16
3 18
3 19
3 21
3 22
3 23
3 24
3 29
3 30
3 32
3 33
3 35
3 40
3 44
3 46
3 47
3 48
3 49
3 50
3 52
3 54
3 56
3 57
4 5
4 7
4 11
4 12
4 13
4 17
4 18
4 22
4 23
4 26
4 31
4 32
4 33
4 36
4 37
4 38
4 39
4 40
4 43
4 48
4 49
4 51
4 52
4 53
4 54
4 55
4 58
4 59
5 8
5 12
5 14
5 15
5 20
5 24
5 26
5 27
5 28
5 33
5 35
5 36
5 37
5 39
5 41
5 42
5 44
5 48
5 49
5 52
5 53
5 59
6 7
6 9
6 10
6 11
6 16
6 18
6 19
6 21
6 22
6 24
6 25
6 28
6 29
6 31
6 32
6 34
6 36
6 40
6 43
6 47
6 48
6 49
6 55
6 56
7 10
7 12
7 13
7 15
7 16
7 21
7 22
7 24
7 25
7 26
7 31
7 33
7 38
7 39
7 40
7 41
7 43
7 44
7 46
7 52
7 54
7 57
7 58
7 59
8 9
8 10
8 12
8 13
8 15
8 16
8 19
8 20
8 23
8 24
8 27
8 28
8 29
8 30
8 32
8 36
8 40
8 49
8 51
8 54
8 56
8 57
8 58
8 59
9 13
9 16
9 17
9 18
9 20
9 21
9 23
9 27
9 30
9 31
9 33
9 35
9 36
9 37
9 38
9 39
9 40
9 41
9 45
9 48
9 53
9 54
9 55
9 57
9 58
9 59
10 11
10 12
10 13
10 15
10 17
10 18
10 20
10 22
10 23
10 25
10 27
10 30
10 31
10 34
10 36
10 38
10 40
10 41
10 44
10 46
10 48
10 50
10 51
10 52
10 54
10 59
11 14
11 15
11 16
11 17
11 18
11 19
11 20
11 21
11 24
11 25
11 27
11 28
11 30
11 31
11 33
11 36
11 40
11 42
11 44
11 45
11 46
11 48
11 49
11 54
12 14
12 15
12 16
12 18
12 23
12 25
12 26
12 27
12 28
12 29
12 30
12 31
12 33
12 34
12 35
12 41
12 45
12 46
12 48
12 49
12 50
12 55
12 56
12 58
13 18
13 23
13 24
13 26
13 31
13 32
13 34
13 35
13 36
13 37
13 38
13 39
13 40
13 44
13 45
13 46
13 47
13 48
13 51
13 52
13 55
13 56
13 59
14 15
14 17
14 21
14 24
14 28
14 30
14 31
14 34
14 35
14 37
14 38
14 39
14 41
14 42
14 46
14 47
14 51
14 53
14 57
14 58
14 59
15 18
15 20
15 23
15 27
15 28
15 29
15 30
15 33
15 35
15 36
15 37
15 38
15 40
15 43
15 46
15 47
15 50
15 51
15 53
15 56
16 19
16 20
16 23
16 24
16 28
16 29
16 30
16 32
16 38
16 40
16 44
16 45
16 47
16 51
16 52
16 54
16 56
16 57
17 18
17 20
17 21
17 22
17 24
17 25
17 27
17 28
17 29
17 30
17 32
17 33
17 35
17 36
17 37
17 38
17 41
17 42
17 47
17 48
17 50
17 51
17 53
17 54
17 55
17 56
18 19
18 22
18 24
18 27
18 29
18 30
18 32
18 33
18 35
18 36
18 37
18 38
18 39
18 40
18 42
18 44
18 46
18 47
18 48
18 49
18 57
18 59
19 20
19 21
19 22
19 23
19 25
19 27
19 28
19 32
19 34
19 36
19 37
19 38
19 39
19 40
19 41
19 45
19 46
19 47
19 48
19 49
19 50
19 53
19 55
19 56
20 25
20 26
20 28
20 31
20 33
20 35
20 36
20 41
20 45
20 51
20 52
20 53
20 54
20 56
20 58
21 22
21 26
21 27
21 29
21 32
21 33
21 35
21 36
21 37
21 39
21 40
21 41
21 42
21 43
21 44
21 45
21 46
21 48
21 50
21 54
21 59
22 24
22 28
22 34
22 41
22 42
22 44
22 45
22 47
22 48
22 50
22 52
22 56
22 57
22 59
23 26
23 27
23 28
23 30
23 32
23 33
23 37
23 39
23 40
23 42
23 45
23 46
23 47
23 48
23 50
23 51
23 53
23 54
23 55
23 58
23 59
24 25
24 28
24 29
24 30
24 35
24 36
24 39
24 43
24 44
24 45
24 46
24 47
24 48
24 50
24 52
24 54
24 55
24 57
25 27
25 30
25 31
25 32
25 33
25 34
25 36
25 38
25 39
25 40
25 41
25 43
25 44
25 46
25 49
25 50
25 51
25 52
25 58
26 27
26 28
26 30
26 31
26 34
26 35
26 38
26 39
26 40
26 44
26 46
26 47
26 48
26 50
26 51
26 52
26 53
26 55
26 56
26 57
26 58
27 28
27 33
27 34
27 36
27 37
27 39
27 41
27 45
27 48
27 49
27 50
27 53
27 54
27 56
27 58
28 31
28 32
28 33
28 37
28 38
28 42
28 48
28 49
28 51
28 53
28 55
28 56
28 58
28 59
29 30
29 31
29 32
29 33
29 34
29 35
29 36
29 40
29 43
29 48
29 49
29 50
29 53
29 55
29 57
29 58
30 32
30 35
30 39
30 40
30 42
30 43
30 44
30 45
30 46
30 47
30 48
30 49
30 51
30 58
31 32
31 33
31 34
31 35
31 37
31 40
31 41
31 44
31 47
31 49
31 50
31 51
31 52
31 53
31 56
31 57
31 58
32 35
32 37
32 38
32 39
32 40
32 41
32 43
32 44
32 46
32 49
32 50
32 55
32 56
32 57
33 35
33 37
33 40
33 42
33 43
33 46
33 47
33 48
33 51
33 53
33 55
33 58
33 59
34 37
34 38
34 42
34 44
34 47
34 51
34 53
34 55
34 57
34 58
35 37
35 38
35 39
35 40
35 44
35 45
35 46
35 47
35 49
35 51
35 53
35 55
35 58
36 40
36 43
36 44
36 45
36 46
36 47
36 49
36 50
36 54
36 56
36 58
37 38
37 39
37 43
37 45
37 47
37 53
37 54
37 57
37 58
37 59
38 39
38 41
38 43
38 45
38 46
38 50
38 51
38 52
38 53
38 55
38 56
38 57
38 58
38 59
39 41
39 45
39 46
39 47
39 52
39 55
39 57
40 41
40 42
40 44
40 45
40 46
40 48
40 50
40 51
40 52
40 57
41 42
41 45
41 48
41 52
41 54
41 55
41 56
41 57
41 58
42 43
42 48
42 53
42 54
42 55
42 56
43 46
43 51
43 54
43 56
43 57
43 59
44 45
44 46
44 47
44 50
44 51
44 52
44 53
45 48
45 49
45 52
45 58
46 47
46 48
46 50
46 52
46 53
46 55
46 56
46 57
46 58
47 48
47 50
47 52
47 54
47 55
47 57
47 58
48 49
48 52
48 56
49 50
49 52
49 54
49 55
49 58
50 52
50 53
50 54
50 55
50 57
51 52
51 53
51 57
51 59
52 56
52 59
53 54
53 56
53 57
53 59
54 57
54 59
56 57
57 59
58 59
16 47
7 33
32 49
4 6
21 22
13 20
30 51
5 18
55 57
31 48
2 43
8 38
12 24
1 3
15 46
37 45
17 34
42 54
53 59
19 44
10 35
27 36
26 50
28 41
0 58
14 40
25 52
11 56
23 39
9 29
